22279
22,94,16,88,79,18,24,38,99,36,84,10,72,21,74,59,17,15,11,32,45,23,98,91,47,93,58,61,51,87,9,7,57,77,60,62,20,86,35,27,12,55,83,34,29,46,43,3,14,71,41,100,48,30,39,96,78,52,5,37,33,76,13,95,82,2,54,40,64,44,50,73,68,85,25,81,69,67,28,1,63,6,49,90,53,19,75,92,8,42,89,31,80,56,97,4,65,26,66,70,22
